
Gurobi 13.0.2 (win64) logging started Fri Jul 24 06:27:34 2026

Set parameter LogFile to value "E:\codes\ExactEBRP\results\gf_c0_mechanism_transfer_c5_round30\runs\stage1__moderate_seed3302__c5_candidate__300s\external\native_logs\L0.1.1.0.0.0.1.1_lp.gurobi.log"
Gurobi Optimizer version 13.0.2 build v13.0.2rc1 (win64 - Windows 10.0 (19045.2))

CPU model: 12th Gen Intel(R) Core(TM) i7-12700KF, instruction set [SSE2|AVX|AVX2]
Thread count: 12 physical cores, 20 logical processors, using up to 1 threads

Non-default parameters:
TimeLimit  219.8954329
MIPGap  0
MIPGapAbs  0
LogToConsole  0
Threads  1

Optimize a model with 11903 rows, 3374 columns and 67328 nonzeros (Min)
Model fingerprint: 0xc451b3f6
Model has 21 linear objective coefficients
Coefficient statistics:
  Matrix range     [7e-03, 1e+04]
  Objective range  [7e-03, 1e+00]
  Bounds range     [4e-02, 3e+02]
  RHS range        [4e-02, 5e+04]

Presolve removed 637 rows and 102 columns
Presolve time: 0.03s
Presolved: 11266 rows, 3325 columns, 65357 nonzeros

Iteration    Objective       Primal Inf.    Dual Inf.      Time
       0    3.7828095e-02   2.745616e+02   0.000000e+00      0s
    3491    1.3975428e-01   0.000000e+00   0.000000e+00      0s

Solved in 3491 iterations and 0.26 seconds (0.81 work units)
Optimal objective  1.397542775e-01

User-callback calls 3635, time in user-callback 0.00 sec
